c Reduced graph for queen12_12g generated by Cyril Grelier
p edge 144 2596
e 1 2
e 1 3
e 1 4
e 1 5
e 1 9
e 1 10
e 1 14
e 1 21
e 1 25
e 1 27
e 1 29
e 1 31
e 1 32
e 1 37
e 1 42
e 1 46
e 1 52
e 1 54
e 1 59
e 1 60
e 1 61
e 1 63
e 1 67
e 1 68
e 1 69
e 1 77
e 1 81
e 1 86
e 1 88
e 1 91
e 1 95
e 1 96
e 1 98
e 1 102
e 1 107
e 1 109
e 1 112
e 1 118
e 1 122
e 1 127
e 1 130
e 2 7
e 2 11
e 2 12
e 2 13
e 2 14
e 2 20
e 2 21
e 2 25
e 2 26
e 2 28
e 2 30
e 2 37
e 2 41
e 2 43
e 2 47
e 2 60
e 2 62
e 2 63
e 2 65
e 2 68
e 2 72
e 2 77
e 2 81
e 2 88
e 2 95
e 2 97
e 2 98
e 2 99
e 2 103
e 2 104
e 2 109
e 2 113
e 2 114
e 2 116
e 2 118
e 2 119
e 2 120
e 2 127
e 2 130
e 2 134
e 3 4
e 3 7
e 3 9
e 3 18
e 3 19
e 3 25
e 3 28
e 3 29
e 3 30
e 3 31
e 3 32
e 3 34
e 3 44
e 3 58
e 3 59
e 3 61
e 3 67
e 3 69
e 3 79
e 3 82
e 3 86
e 3 90
e 3 95
e 3 97
e 3 101
e 3 103
e 3 107
e 3 112
e 3 117
e 3 118
e 3 119
e 3 120
e 3 124
e 3 125
e 3 128
e 3 130
e 3 135
e 3 137
e 3 140
e 3 141
e 4 5
e 4 6
e 4 8
e 4 9
e 4 15
e 4 18
e 4 20
e 4 25
e 4 27
e 4 28
e 4 29
e 4 39
e 4 49
e 4 56
e 4 57
e 4 61
e 4 63
e 4 65
e 4 66
e 4 69
e 4 70
e 4 73
e 4 75
e 4 86
e 4 96
e 4 105
e 4 106
e 4 107
e 4 108
e 4 112
e 4 113
e 4 114
e 4 115
e 4 119
e 4 126
e 4 128
e 4 130
e 5 10
e 5 15
e 5 18
e 5 20
e 5 22
e 5 26
e 5 31
e 5 32
e 5 35
e 5 42
e 5 46
e 5 50
e 5 55
e 5 58
e 5 59
e 5 60
e 5 61
e 5 63
e 5 64
e 5 66
e 5 70
e 5 76
e 5 80
e 5 91
e 5 96
e 5 97
e 5 99
e 5 101
e 5 105
e 5 110
e 5 113
e 5 122
e 5 123
e 5 126
e 5 127
e 5 132
e 5 134
e 6 7
e 6 8
e 6 10
e 6 15
e 6 23
e 6 25
e 6 27
e 6 28
e 6 33
e 6 34
e 6 36
e 6 38
e 6 49
e 6 51
e 6 52
e 6 57
e 6 58
e 6 60
e 6 63
e 6 64
e 6 65
e 6 70
e 6 74
e 6 75
e 6 82
e 6 89
e 6 98
e 6 100
e 6 104
e 6 106
e 6 114
e 6 122
e 6 123
e 6 128
e 6 129
e 6 131
e 6 139
e 6 140
e 7 11
e 7 12
e 7 13
e 7 16
e 7 18
e 7 19
e 7 27
e 7 30
e 7 34
e 7 35
e 7 45
e 7 51
e 7 52
e 7 58
e 7 59
e 7 62
e 7 65
e 7 67
e 7 69
e 7 82
e 7 87
e 7 90
e 7 98
e 7 100
e 7 101
e 7 114
e 7 118
e 7 119
e 7 122
e 7 123
e 7 124
e 7 127
e 7 129
e 7 130
e 7 134
e 7 140
e 8 15
e 8 26
e 8 27
e 8 28
e 8 30
e 8 41
e 8 48
e 8 49
e 8 53
e 8 55
e 8 57
e 8 59
e 8 60
e 8 61
e 8 63
e 8 70
e 8 71
e 8 72
e 8 75
e 8 78
e 8 83
e 8 85
e 8 92
e 8 96
e 8 100
e 8 101
e 8 102
e 8 104
e 8 106
e 8 107
e 8 114
e 8 118
e 8 124
e 8 126
e 8 128
e 8 129
e 8 138
e 9 10
e 9 13
e 9 18
e 9 24
e 9 25
e 9 26
e 9 29
e 9 33
e 9 39
e 9 44
e 9 48
e 9 61
e 9 64
e 9 68
e 9 69
e 9 71
e 9 72
e 9 76
e 9 84
e 9 86
e 9 87
e 9 93
e 9 100
e 9 103
e 9 106
e 9 107
e 9 110
e 9 112
e 9 119
e 9 121
e 9 123
e 9 130
e 9 136
e 9 138
e 10 11
e 10 12
e 10 15
e 10 24
e 10 26
e 10 32
e 10 38
e 10 42
e 10 46
e 10 53
e 10 59
e 10 60
e 10 68
e 10 73
e 10 74
e 10 75
e 10 79
e 10 80
e 10 89
e 10 91
e 10 93
e 10 96
e 10 100
e 10 104
e 10 106
e 10 110
e 10 119
e 10 121
e 10 122
e 10 124
e 10 127
e 10 137
e 10 140
e 11 12
e 11 16
e 11 19
e 11 25
e 11 26
e 11 27
e 11 35
e 11 41
e 11 45
e 11 53
e 11 59
e 11 62
e 11 65
e 11 68
e 11 69
e 11 72
e 11 73
e 11 74
e 11 75
e 11 78
e 11 79
e 11 80
e 11 87
e 11 97
e 11 98
e 11 103
e 11 109
e 11 113
e 11 116
e 11 120
e 11 124
e 11 137
e 11 142
e 11 143
e 12 13
e 12 17
e 12 19
e 12 28
e 12 30
e 12 31
e 12 38
e 12 40
e 12 53
e 12 57
e 12 61
e 12 62
e 12 66
e 12 68
e 12 73
e 12 74
e 12 75
e 12 79
e 12 80
e 12 95
e 12 100
e 12 102
e 12 112
e 12 114
e 12 116
e 12 122
e 12 124
e 12 127
e 12 130
e 12 134
e 12 136
e 12 137
e 12 142
e 13 17
e 13 27
e 13 29
e 13 30
e 13 33
e 13 39
e 13 40
e 13 44
e 13 46
e 13 47
e 13 58
e 13 67
e 13 68
e 13 71
e 13 76
e 13 78
e 13 84
e 13 87
e 13 89
e 13 95
e 13 96
e 13 97
e 13 103
e 13 114
e 13 120
e 13 121
e 13 123
e 13 126
e 13 127
e 13 130
e 13 134
e 13 138
e 13 143
e 14 21
e 14 24
e 14 32
e 14 33
e 14 34
e 14 35
e 14 37
e 14 45
e 14 46
e 14 63
e 14 66
e 14 67
e 14 68
e 14 69
e 14 70
e 14 72
e 14 74
e 14 81
e 14 88
e 14 93
e 14 95
e 14 98
e 14 102
e 14 104
e 14 105
e 14 108
e 14 111
e 14 112
e 14 118
e 14 125
e 14 126
e 14 128
e 14 132
e 14 133
e 14 141
e 15 18
e 15 20
e 15 26
e 15 30
e 15 35
e 15 36
e 15 37
e 15 38
e 15 40
e 15 48
e 15 50
e 15 57
e 15 59
e 15 66
e 15 71
e 15 77
e 15 78
e 15 79
e 15 85
e 15 89
e 15 94
e 15 102
e 15 104
e 15 107
e 15 108
e 15 113
e 15 118
e 15 126
e 15 129
e 15 140
e 16 19
e 16 22
e 16 27
e 16 29
e 16 30
e 16 35
e 16 36
e 16 38
e 16 39
e 16 41
e 16 45
e 16 47
e 16 54
e 16 59
e 16 62
e 16 64
e 16 68
e 16 69
e 16 73
e 16 81
e 16 82
e 16 83
e 16 87
e 16 92
e 16 98
e 16 99
e 16 106
e 16 116
e 16 121
e 16 125
e 16 127
e 16 133
e 16 135
e 17 18
e 17 29
e 17 31
e 17 32
e 17 37
e 17 38
e 17 40
e 17 42
e 17 44
e 17 46
e 17 47
e 17 57
e 17 61
e 17 62
e 17 63
e 17 66
e 17 67
e 17 69
e 17 78
e 17 83
e 17 85
e 17 90
e 17 95
e 17 97
e 17 100
e 17 109
e 17 115
e 17 128
e 17 131
e 17 132
e 17 136
e 17 142
e 17 144
e 18 19
e 18 20
e 18 37
e 18 42
e 18 44
e 18 48
e 18 58
e 18 64
e 18 66
e 18 67
e 18 72
e 18 83
e 18 84
e 18 90
e 18 101
e 18 109
e 18 113
e 18 115
e 18 118
e 18 119
e 18 124
e 18 126
e 18 128
e 18 131
e 18 132
e 18 136
e 18 140
e 18 144
e 19 22
e 19 28
e 19 36
e 19 38
e 19 39
e 19 40
e 19 41
e 19 58
e 19 67
e 19 78
e 19 81
e 19 90
e 19 98
e 19 101
e 19 102
e 19 103
e 19 106
e 19 112
e 19 116
e 19 118
e 19 119
e 19 122
e 19 124
e 19 127
e 19 133
e 19 135
e 19 140
e 19 142
e 19 143
e 20 21
e 20 28
e 20 43
e 20 45
e 20 47
e 20 52
e 20 53
e 20 55
e 20 60
e 20 62
e 20 66
e 20 74
e 20 77
e 20 85
e 20 89
e 20 91
e 20 99
e 20 103
e 20 104
e 20 106
e 20 112
e 20 113
e 20 115
e 20 119
e 20 126
e 20 129
e 20 135
e 20 139
e 21 23
e 21 37
e 21 45
e 21 46
e 21 49
e 21 50
e 21 52
e 21 53
e 21 54
e 21 55
e 21 63
e 21 68
e 21 81
e 21 85
e 21 88
e 21 89
e 21 90
e 21 95
e 21 98
e 21 112
e 21 113
e 21 115
e 21 117
e 21 118
e 21 135
e 21 136
e 21 138
e 21 139
e 21 141
e 22 23
e 22 24
e 22 26
e 22 36
e 22 38
e 22 39
e 22 41
e 22 47
e 22 48
e 22 50
e 22 51
e 22 56
e 22 58
e 22 61
e 22 70
e 22 80
e 22 81
e 22 86
e 22 88
e 22 99
e 22 106
e 22 123
e 22 127
e 22 132
e 22 133
e 22 134
e 22 135
e 22 137
e 22 143
e 22 144
e 23 24
e 23 25
e 23 33
e 23 36
e 23 46
e 23 47
e 23 48
e 23 49
e 23 50
e 23 51
e 23 54
e 23 57
e 23 58
e 23 60
e 23 64
e 23 74
e 23 86
e 23 88
e 23 90
e 23 113
e 23 117
e 23 131
e 23 134
e 23 136
e 23 137
e 23 138
e 23 139
e 23 141
e 23 143
e 23 144
e 24 26
e 24 32
e 24 33
e 24 45
e 24 47
e 24 48
e 24 51
e 24 66
e 24 67
e 24 70
e 24 72
e 24 86
e 24 88
e 24 93
e 24 100
e 24 106
e 24 108
e 24 110
e 24 111
e 24 119
e 24 121
e 24 125
e 24 131
e 24 134
e 24 137
e 24 138
e 24 143
e 24 144
e 25 26
e 25 29
e 25 33
e 25 36
e 25 41
e 25 42
e 25 43
e 25 49
e 25 51
e 25 57
e 25 58
e 25 60
e 25 61
e 25 64
e 25 65
e 25 66
e 25 69
e 25 71
e 25 72
e 25 74
e 25 86
e 25 97
e 25 101
e 25 107
e 25 109
e 25 112
e 25 113
e 25 116
e 25 120
e 25 121
e 25 130
e 25 131
e 25 139
e 26 30
e 26 41
e 26 48
e 26 50
e 26 57
e 26 58
e 26 59
e 26 61
e 26 65
e 26 70
e 26 71
e 26 72
e 26 78
e 26 80
e 26 85
e 26 93
e 26 97
e 26 99
e 26 100
e 26 102
e 26 106
e 26 109
e 26 110
e 26 113
e 26 116
e 26 118
e 26 119
e 26 120
e 26 121
e 26 123
e 26 132
e 27 28
e 27 31
e 27 35
e 27 40
e 27 45
e 27 49
e 27 52
e 27 54
e 27 58
e 27 59
e 27 62
e 27 63
e 27 67
e 27 69
e 27 70
e 27 75
e 27 77
e 27 84
e 27 87
e 27 89
e 27 95
e 27 96
e 27 102
e 27 106
e 27 109
e 27 114
e 27 120
e 27 121
e 27 126
e 27 128
e 27 143
e 28 34
e 28 40
e 28 43
e 28 44
e 28 47
e 28 49
e 28 59
e 28 60
e 28 62
e 28 63
e 28 70
e 28 75
e 28 77
e 28 79
e 28 95
e 28 97
e 28 99
e 28 102
e 28 103
e 28 104
e 28 106
e 28 112
e 28 114
e 28 116
e 28 117
e 28 119
e 28 122
e 28 125
e 28 128
e 28 135
e 29 30
e 29 46
e 29 47
e 29 54
e 29 61
e 29 62
e 29 64
e 29 67
e 29 69
e 29 73
e 29 75
e 29 76
e 29 78
e 29 83
e 29 86
e 29 92
e 29 94
e 29 97
e 29 98
e 29 99
e 29 107
e 29 111
e 29 112
e 29 118
e 29 120
e 29 121
e 29 122
e 29 125
e 29 130
e 29 133
e 29 144
e 30 31
e 30 32
e 30 48
e 30 54
e 30 57
e 30 59
e 30 64
e 30 71
e 30 73
e 30 78
e 30 82
e 30 83
e 30 85
e 30 92
e 30 98
e 30 99
e 30 102
e 30 103
e 30 114
e 30 118
e 30 120
e 30 121
e 30 125
e 30 127
e 30 128
e 30 130
e 30 134
e 30 137
e 30 141
e 31 32
e 31 35
e 31 38
e 31 52
e 31 54
e 31 55
e 31 57
e 31 61
e 31 62
e 31 63
e 31 64
e 31 66
e 31 67
e 31 76
e 31 77
e 31 82
e 31 95
e 31 97
e 31 100
e 31 101
e 31 102
e 31 103
e 31 105
e 31 109
e 31 110
e 31 120
e 31 128
e 31 134
e 31 136
e 31 137
e 31 141
e 31 142
e 32 33
e 32 40
e 32 42
e 32 45
e 32 46
e 32 59
e 32 60
e 32 63
e 32 66
e 32 67
e 32 69
e 32 70
e 32 72
e 32 82
e 32 85
e 32 90
e 32 91
e 32 96
e 32 103
e 32 108
e 32 111
e 32 120
e 32 122
e 32 125
e 32 127
e 32 128
e 32 137
e 32 141
e 33 36
e 33 39
e 33 44
e 33 45
e 33 57
e 33 58
e 33 60
e 33 64
e 33 66
e 33 67
e 33 68
e 33 70
e 33 71
e 33 72
e 33 74
e 33 76
e 33 83
e 33 86
e 33 87
e 33 103
e 33 108
e 33 110
e 33 111
e 33 113
e 33 123
e 33 125
e 33 131
e 33 138
e 33 139
e 34 44
e 34 51
e 34 52
e 34 59
e 34 65
e 34 69
e 34 74
e 34 75
e 34 77
e 34 79
e 34 82
e 34 85
e 34 93
e 34 95
e 34 97
e 34 98
e 34 100
e 34 102
e 34 104
e 34 105
e 34 117
e 34 122
e 34 123
e 34 125
e 34 126
e 34 127
e 34 129
e 34 132
e 34 133
e 34 135
e 34 141
e 34 142
e 35 36
e 35 37
e 35 40
e 35 45
e 35 46
e 35 50
e 35 55
e 35 59
e 35 62
e 35 63
e 35 64
e 35 69
e 35 76
e 35 77
e 35 79
e 35 87
e 35 94
e 35 97
e 35 101
e 35 105
e 35 107
e 35 108
e 35 110
e 35 112
e 35 128
e 35 129
e 35 134
e 36 37
e 36 38
e 36 39
e 36 40
e 36 41
e 36 50
e 36 53
e 36 57
e 36 58
e 36 60
e 36 64
e 36 74
e 36 77
e 36 79
e 36 81
e 36 93
e 36 94
e 36 106
e 36 107
e 36 108
e 36 127
e 36 129
e 36 131
e 36 133
e 36 135
e 36 139
e 37 40
e 37 42
e 37 44
e 37 45
e 37 50
e 37 63
e 37 68
e 37 77
e 37 79
e 37 81
e 37 83
e 37 88
e 37 94
e 37 95
e 37 98
e 37 107
e 37 108
e 37 109
e 37 115
e 37 118
e 37 128
e 37 129
e 37 131
e 37 132
e 37 141
e 37 144
e 38 39
e 38 41
e 38 57
e 38 61
e 38 62
e 38 65
e 38 66
e 38 71
e 38 81
e 38 84
e 38 86
e 38 89
e 38 91
e 38 95
e 38 99
e 38 100
e 38 104
e 38 106
e 38 124
e 38 127
e 38 133
e 38 135
e 38 136
e 38 140
e 38 142
e 39 41
e 39 44
e 39 51
e 39 56
e 39 57
e 39 65
e 39 68
e 39 71
e 39 73
e 39 76
e 39 80
e 39 81
e 39 87
e 39 92
e 39 96
e 39 103
e 39 105
e 39 106
e 39 108
e 39 115
e 39 119
e 39 123
e 39 127
e 39 133
e 39 135
e 39 138
e 40 50
e 40 58
e 40 63
e 40 69
e 40 77
e 40 79
e 40 84
e 40 85
e 40 89
e 40 90
e 40 94
e 40 95
e 40 96
e 40 102
e 40 107
e 40 108
e 40 112
e 40 116
e 40 120
e 40 121
e 40 122
e 40 126
e 40 129
e 40 143
e 41 43
e 41 48
e 41 55
e 41 60
e 41 65
e 41 72
e 41 73
e 41 81
e 41 92
e 41 97
e 41 100
e 41 106
e 41 107
e 41 109
e 41 113
e 41 116
e 41 120
e 41 123
e 41 124
e 41 126
e 41 127
e 41 133
e 41 135
e 41 140
e 42 43
e 42 44
e 42 46
e 42 49
e 42 51
e 42 59
e 42 60
e 42 66
e 42 70
e 42 71
e 42 83
e 42 89
e 42 91
e 42 96
e 42 101
e 42 105
e 42 107
e 42 109
e 42 115
e 42 121
e 42 122
e 42 127
e 42 128
e 42 131
e 42 132
e 42 136
e 42 144
e 43 47
e 43 48
e 43 49
e 43 51
e 43 56
e 43 60
e 43 62
e 43 66
e 43 71
e 43 73
e 43 77
e 43 78
e 43 80
e 43 81
e 43 82
e 43 84
e 43 99
e 43 101
e 43 103
e 43 104
e 43 110
e 43 111
e 43 117
e 43 119
e 43 121
e 43 123
e 43 130
e 43 131
e 43 140
e 44 54
e 44 59
e 44 68
e 44 71
e 44 76
e 44 79
e 44 83
e 44 87
e 44 95
e 44 97
e 44 103
e 44 109
e 44 111
e 44 115
e 44 117
e 44 123
e 44 125
e 44 128
e 44 131
e 44 132
e 44 134
e 44 135
e 44 138
e 44 144
e 45 52
e 45 53
e 45 55
e 45 59
e 45 62
e 45 66
e 45 67
e 45 69
e 45 70
e 45 72
e 45 85
e 45 87
e 45 89
e 45 108
e 45 111
e 45 112
e 45 115
e 45 125
e 45 135
e 45 139
e 45 141
e 46 47
e 46 49
e 46 50
e 46 54
e 46 59
e 46 60
e 46 67
e 46 78
e 46 90
e 46 91
e 46 96
e 46 97
e 46 112
e 46 113
e 46 117
e 46 122
e 46 127
e 46 128
e 46 136
e 46 138
e 46 141
e 47 48
e 47 51
e 47 60
e 47 62
e 47 67
e 47 68
e 47 77
e 47 78
e 47 82
e 47 86
e 47 88
e 47 97
e 47 99
e 47 103
e 47 104
e 47 116
e 47 119
e 47 134
e 47 137
e 47 143
e 47 144
e 48 51
e 48 57
e 48 59
e 48 64
e 48 71
e 48 72
e 48 73
e 48 78
e 48 84
e 48 85
e 48 86
e 48 88
e 48 102
e 48 118
e 48 123
e 48 134
e 48 136
e 48 137
e 48 140
e 48 143
e 48 144
e 49 50
e 49 51
e 49 54
e 49 55
e 49 63
e 49 66
e 49 70
e 49 71
e 49 75
e 49 90
e 49 101
e 49 106
e 49 108
e 49 113
e 49 114
e 49 117
e 49 121
e 49 128
e 49 132
e 49 136
e 49 138
e 49 141
e 50 54
e 50 58
e 50 61
e 50 70
e 50 77
e 50 79
e 50 80
e 50 90
e 50 94
e 50 99
e 50 107
e 50 108
e 50 113
e 50 115
e 50 117
e 50 123
e 50 129
e 50 132
e 50 136
e 50 138
e 50 141
e 51 52
e 51 65
e 51 66
e 51 71
e 51 80
e 51 82
e 51 86
e 51 88
e 51 92
e 51 98
e 51 100
e 51 101
e 51 121
e 51 122
e 51 123
e 51 129
e 51 134
e 51 137
e 51 143
e 51 144
e 52 53
e 52 54
e 52 55
e 52 65
e 52 67
e 52 77
e 52 79
e 52 82
e 52 85
e 52 89
e 52 98
e 52 100
e 52 102
e 52 109
e 52 112
e 52 114
e 52 115
e 52 122
e 52 123
e 52 129
e 52 133
e 52 135
e 52 139
e 53 55
e 53 61
e 53 68
e 53 72
e 53 73
e 53 74
e 53 75
e 53 79
e 53 80
e 53 83
e 53 85
e 53 89
e 53 93
e 53 96
e 53 101
e 53 104
e 53 112
e 53 115
e 53 124
e 53 129
e 53 135
e 53 137
e 53 138
e 53 139
e 54 64
e 54 67
e 54 73
e 54 77
e 54 83
e 54 90
e 54 92
e 54 98
e 54 99
e 54 102
e 54 109
e 54 111
e 54 113
e 54 117
e 54 121
e 54 125
e 54 134
e 54 136
e 54 138
e 54 141
e 55 60
e 55 63
e 55 64
e 55 76
e 55 85
e 55 89
e 55 92
e 55 97
e 55 100
e 55 101
e 55 105
e 55 107
e 55 108
e 55 110
e 55 112
e 55 115
e 55 124
e 55 126
e 55 132
e 55 134
e 55 135
e 55 139
e 56 57
e 56 65
e 56 73
e 56 78
e 56 80
e 56 81
e 56 82
e 56 84
e 56 87
e 56 88
e 56 91
e 56 92
e 56 93
e 56 94
e 56 96
e 56 105
e 56 108
e 56 110
e 56 111
e 56 114
e 56 115
e 56 116
e 56 117
e 56 119
e 56 130
e 56 131
e 56 139
e 56 140
e 56 142
e 57 58
e 57 59
e 57 60
e 57 61
e 57 62
e 57 64
e 57 65
e 57 66
e 57 71
e 57 73
e 57 74
e 57 78
e 57 85
e 57 95
e 57 96
e 57 100
e 57 102
e 57 105
e 57 108
e 57 115
e 57 118
e 57 119
e 57 131
e 57 136
e 57 139
e 57 142
e 58 60
e 58 61
e 58 64
e 58 67
e 58 70
e 58 74
e 58 80
e 58 84
e 58 89
e 58 90
e 58 95
e 58 96
e 58 99
e 58 101
e 58 118
e 58 119
e 58 120
e 58 121
e 58 123
e 58 124
e 58 126
e 58 131
e 58 132
e 58 139
e 58 140
e 58 143
e 59 60
e 59 62
e 59 69
e 59 71
e 59 78
e 59 79
e 59 85
e 59 87
e 59 91
e 59 95
e 59 96
e 59 97
e 59 102
e 59 117
e 59 118
e 59 122
e 59 125
e 59 127
e 59 135
e 60 62
e 60 64
e 60 74
e 60 77
e 60 91
e 60 92
e 60 96
e 60 99
e 60 100
e 60 103
e 60 104
e 60 107
e 60 119
e 60 122
e 60 124
e 60 126
e 60 127
e 60 131
e 60 139
e 61 62
e 61 66
e 61 69
e 61 70
e 61 72
e 61 80
e 61 83
e 61 86
e 61 95
e 61 96
e 61 99
e 61 100
e 61 101
e 61 104
e 61 107
e 61 112
e 61 123
e 61 129
e 61 130
e 61 132
e 61 136
e 61 138
e 61 142
e 62 66
e 62 69
e 62 75
e 62 76
e 62 77
e 62 87
e 62 94
e 62 95
e 62 99
e 62 100
e 62 103
e 62 104
e 62 111
e 62 118
e 62 119
e 62 120
e 62 122
e 62 133
e 62 136
e 62 142
e 62 144
e 63 64
e 63 68
e 63 69
e 63 70
e 63 75
e 63 76
e 63 81
e 63 85
e 63 88
e 63 90
e 63 95
e 63 97
e 63 98
e 63 101
e 63 105
e 63 106
e 63 110
e 63 114
e 63 118
e 63 128
e 63 134
e 64 72
e 64 73
e 64 74
e 64 76
e 64 83
e 64 84
e 64 92
e 64 97
e 64 98
e 64 99
e 64 101
e 64 105
e 64 110
e 64 121
e 64 125
e 64 131
e 64 134
e 64 136
e 64 139
e 65 71
e 65 72
e 65 73
e 65 82
e 65 84
e 65 86
e 65 91
e 65 96
e 65 97
e 65 98
e 65 99
e 65 100
e 65 105
e 65 108
e 65 109
e 65 113
e 65 115
e 65 116
e 65 119
e 65 120
e 65 122
e 65 123
e 65 124
e 65 129
e 66 67
e 66 70
e 66 71
e 66 72
e 66 95
e 66 100
e 66 101
e 66 108
e 66 111
e 66 113
e 66 121
e 66 125
e 66 126
e 66 136
e 66 142
e 67 70
e 67 72
e 67 77
e 67 78
e 67 90
e 67 97
e 67 101
e 67 102
e 67 108
e 67 109
e 67 111
e 67 118
e 67 119
e 67 124
e 67 125
e 67 140
e 68 71
e 68 73
e 68 74
e 68 75
e 68 76
e 68 79
e 68 80
e 68 81
e 68 82
e 68 87
e 68 88
e 68 95
e 68 98
e 68 103
e 68 116
e 68 118
e 68 123
e 68 124
e 68 137
e 68 138
e 69 74
e 69 85
e 69 86
e 69 87
e 69 90
e 69 93
e 69 102
e 69 104
e 69 105
e 69 107
e 69 112
e 69 126
e 69 130
e 69 132
e 69 133
e 69 141
e 70 72
e 70 75
e 70 80
e 70 89
e 70 99
e 70 105
e 70 106
e 70 107
e 70 108
e 70 111
e 70 114
e 70 123
e 70 125
e 70 128
e 70 132
e 70 136
e 71 76
e 71 78
e 71 84
e 71 85
e 71 86
e 71 87
e 71 91
e 71 99
e 71 101
e 71 102
e 71 103
e 71 118
e 71 121
e 71 123
e 71 124
e 71 138
e 72 83
e 72 84
e 72 96
e 72 97
e 72 101
e 72 104
e 72 108
e 72 109
e 72 111
e 72 113
e 72 116
e 72 120
e 72 125
e 72 129
e 72 136
e 72 138
e 73 74
e 73 75
e 73 79
e 73 80
e 73 83
e 73 92
e 73 96
e 73 98
e 73 99
e 73 105
e 73 108
e 73 115
e 73 119
e 73 121
e 73 123
e 73 124
e 73 125
e 73 137
e 73 140
e 74 75
e 74 79
e 74 80
e 74 91
e 74 93
e 74 102
e 74 104
e 74 105
e 74 106
e 74 124
e 74 126
e 74 129
e 74 131
e 74 132
e 74 133
e 74 137
e 74 139
e 74 141
e 75 76
e 75 77
e 75 79
e 75 80
e 75 85
e 75 94
e 75 106
e 75 111
e 75 114
e 75 118
e 75 120
e 75 122
e 75 124
e 75 127
e 75 128
e 75 133
e 75 137
e 75 142
e 75 144
e 76 87
e 76 90
e 76 94
e 76 97
e 76 101
e 76 103
e 76 105
e 76 109
e 76 110
e 76 111
e 76 118
e 76 120
e 76 122
e 76 123
e 76 125
e 76 130
e 76 133
e 76 134
e 76 138
e 76 143
e 76 144
e 77 79
e 77 85
e 77 94
e 77 99
e 77 102
e 77 103
e 77 104
e 77 107
e 77 108
e 77 109
e 77 119
e 77 127
e 77 129
e 77 142
e 78 80
e 78 81
e 78 82
e 78 84
e 78 85
e 78 97
e 78 98
e 78 102
e 78 103
e 78 110
e 78 111
e 78 117
e 78 118
e 78 130
e 78 131
e 78 142
e 78 143
e 79 80
e 79 94
e 79 95
e 79 97
e 79 107
e 79 108
e 79 114
e 79 117
e 79 124
e 79 125
e 79 129
e 79 133
e 79 135
e 79 137
e 80 81
e 80 82
e 80 84
e 80 92
e 80 99
e 80 110
e 80 111
e 80 117
e 80 123
e 80 124
e 80 130
e 80 131
e 80 132
e 80 137
e 81 82
e 81 84
e 81 87
e 81 88
e 81 95
e 81 98
e 81 106
e 81 110
e 81 111
e 81 117
e 81 118
e 81 127
e 81 130
e 81 131
e 81 133
e 81 135
e 81 137
e 82 84
e 82 98
e 82 100
e 82 103
e 82 110
e 82 111
e 82 116
e 82 117
e 82 120
e 82 122
e 82 123
e 82 128
e 82 129
e 82 130
e 82 131
e 82 137
e 82 141
e 83 86
e 83 92
e 83 96
e 83 98
e 83 99
e 83 101
e 83 104
e 83 109
e 83 110
e 83 113
e 83 115
e 83 121
e 83 125
e 83 128
e 83 129
e 83 131
e 83 132
e 83 138
e 83 144
e 84 86
e 84 89
e 84 91
e 84 95
e 84 96
e 84 99
e 84 110
e 84 111
e 84 117
e 84 120
e 84 121
e 84 124
e 84 126
e 84 130
e 84 131
e 84 136
e 84 143
e 85 89
e 85 90
e 85 102
e 85 112
e 85 115
e 85 118
e 85 127
e 85 135
e 85 139
e 85 142
e 86 88
e 86 91
e 86 99
e 86 107
e 86 110
e 86 112
e 86 113
e 86 124
e 86 130
e 86 134
e 86 137
e 86 143
e 86 144
e 87 88
e 87 91
e 87 92
e 87 93
e 87 94
e 87 103
e 87 114
e 87 116
e 87 123
e 87 137
e 87 138
e 87 139
e 87 140
e 87 142
e 88 91
e 88 92
e 88 93
e 88 94
e 88 95
e 88 98
e 88 114
e 88 116
e 88 118
e 88 134
e 88 137
e 88 139
e 88 140
e 88 142
e 88 143
e 88 144
e 89 95
e 89 96
e 89 104
e 89 105
e 89 107
e 89 112
e 89 115
e 89 120
e 89 121
e 89 126
e 89 135
e 89 136
e 89 139
e 89 140
e 89 143
e 90 101
e 90 109
e 90 113
e 90 117
e 90 118
e 90 119
e 90 124
e 90 125
e 90 130
e 90 136
e 90 138
e 90 140
e 90 141
e 90 143
e 91 92
e 91 93
e 91 94
e 91 96
e 91 99
e 91 106
e 91 114
e 91 116
e 91 122
e 91 124
e 91 127
e 91 129
e 91 139
e 91 140
e 91 142
e 92 93
e 92 94
e 92 98
e 92 99
e 92 100
e 92 107
e 92 114
e 92 116
e 92 121
e 92 124
e 92 125
e 92 126
e 92 139
e 92 140
e 92 142
e 93 94
e 93 100
e 93 102
e 93 104
e 93 105
e 93 106
e 93 110
e 93 114
e 93 116
e 93 119
e 93 121
e 93 126
e 93 132
e 93 133
e 93 139
e 93 140
e 93 141
e 93 142
e 94 107
e 94 108
e 94 111
e 94 114
e 94 116
e 94 118
e 94 120
e 94 122
e 94 129
e 94 133
e 94 135
e 94 139
e 94 140
e 94 142
e 94 144
e 95 96
e 95 97
e 95 98
e 95 100
e 95 117
e 95 118
e 95 120
e 95 121
e 95 125
e 95 126
e 95 135
e 95 136
e 95 142
e 95 143
e 96 101
e 96 104
e 96 105
e 96 108
e 96 115
e 96 119
e 96 120
e 96 121
e 96 122
e 96 126
e 96 127
e 96 129
e 96 138
e 96 143
e 97 101
e 97 105
e 97 109
e 97 110
e 97 113
e 97 116
e 97 117
e 97 120
e 97 125
e 97 134
e 97 135
e 98 99
e 98 100
e 98 103
e 98 118
e 98 121
e 98 122
e 98 123
e 98 125
e 98 129
e 98 142
e 98 143
e 99 103
e 99 104
e 99 119
e 99 121
e 99 123
e 99 124
e 99 125
e 99 132
e 100 106
e 100 107
e 100 110
e 100 119
e 100 121
e 100 122
e 100 123
e 100 124
e 100 126
e 100 129
e 100 136
e 100 142
e 101 104
e 101 105
e 101 110
e 101 118
e 101 119
e 101 121
e 101 124
e 101 129
e 101 134
e 101 138
e 101 140
e 102 104
e 102 105
e 102 109
e 102 112
e 102 116
e 102 118
e 102 122
e 102 126
e 102 132
e 102 133
e 102 141
e 103 104
e 103 119
e 103 120
e 103 123
e 103 128
e 103 137
e 103 138
e 103 141
e 103 142
e 103 143
e 104 105
e 104 119
e 104 126
e 104 129
e 104 132
e 104 133
e 104 138
e 104 140
e 104 141
e 105 107
e 105 108
e 105 110
e 105 115
e 105 119
e 105 126
e 105 132
e 105 133
e 105 134
e 105 136
e 105 141
e 106 110
e 106 114
e 106 119
e 106 121
e 106 127
e 106 128
e 106 129
e 106 133
e 106 135
e 107 108
e 107 112
e 107 124
e 107 126
e 107 129
e 107 130
e 107 136
e 108 111
e 108 115
e 108 119
e 108 125
e 108 129
e 108 132
e 109 113
e 109 115
e 109 116
e 109 120
e 109 125
e 109 128
e 109 130
e 109 131
e 109 132
e 109 143
e 109 144
e 110 111
e 110 113
e 110 117
e 110 119
e 110 121
e 110 130
e 110 131
e 110 134
e 111 117
e 111 118
e 111 120
e 111 122
e 111 125
e 111 130
e 111 131
e 111 133
e 111 134
e 111 144
e 112 115
e 112 116
e 112 122
e 112 128
e 112 130
e 112 135
e 112 139
e 113 116
e 113 117
e 113 120
e 113 126
e 113 136
e 113 138
e 113 141
e 114 116
e 114 127
e 114 128
e 114 130
e 114 133
e 114 134
e 114 139
e 114 140
e 114 142
e 115 119
e 115 128
e 115 131
e 115 132
e 115 135
e 115 139
e 115 144
e 116 120
e 116 122
e 116 139
e 116 140
e 116 142
e 117 125
e 117 130
e 117 131
e 117 135
e 117 136
e 117 138
e 117 141
e 117 144
e 118 119
e 118 120
e 118 122
e 118 124
e 118 133
e 118 140
e 118 144
e 119 121
e 119 124
e 119 140
e 120 121
e 120 122
e 120 126
e 120 128
e 120 133
e 120 137
e 120 141
e 120 143
e 120 144
e 121 125
e 121 126
e 121 143
e 122 123
e 122 127
e 122 129
e 122 133
e 122 144
e 123 129
e 123 132
e 123 138
e 123 140
e 124 126
e 124 137
e 124 140
e 125 130
e 125 135
e 125 143
e 126 132
e 126 133
e 126 141
e 126 143
e 127 130
e 127 133
e 127 134
e 127 135
e 127 142
e 128 131
e 128 132
e 128 137
e 128 141
e 128 144
e 129 138
e 130 131
e 130 134
e 130 143
e 131 132
e 131 138
e 131 139
e 131 144
e 132 133
e 132 141
e 132 144
e 133 135
e 133 141
e 133 144
e 134 137
e 134 143
e 134 144
e 135 139
e 136 138
e 136 141
e 136 142
e 137 141
e 137 143
e 137 144
e 138 141
e 139 140
e 139 142
e 140 142
e 142 143
e 143 144
